##
## Sets
##

set A := 2 4 6 8;

set B := 1 2 3;


##
## Parameters
##

param Z := 1.1;

param Y := 
2 3.3
4 3.4
6 3.5
8 3.6
;

param X: 2 4 6 8 :=
1 1.3 2.3 3.3 4.3
2 1.4 2.4 3.4 4.4
3 1.5 2.5 3.5 4.5
;

param T := 1;

param S := 2;
